<number of tasks>
50

<cycle time>
1000

<order strength>
0.197


<task times>
1 787
2 519
3 595
4 608
5 442
6 485
7 469
8 326
9 551
10 557
11 627
12 520
13 775
14 445
15 440
16 608
17 463
18 395
19 726
20 462
21 502
22 642
23 801
24 488
25 494
26 489
27 845
28 448
29 390
30 522
31 567
32 327
33 595
34 645
35 538
36 265
37 452
38 622
39 564
40 539
41 557
42 475
43 351
44 517
45 681
46 466
47 626
48 516
49 561
50 382

<precedence relations>
1,20
2,20
3,9
3,10
3,12
3,13
4,6
4,8
4,11
5,7
6,20
7,16
8,14
11,17
12,15
12,18
12,19
14,20
15,20
16,21
17,22
17,25
17,26
18,24
19,23
20,27
20,28
20,29
20,30
20,34
21,32
22,31
24,33
27,37
31,35
33,36
33,39
34,38
35,41
36,40
36,44
36,45
37,42
38,43
40,46
41,48
42,47
43,49
45,50

<end>
